NAME : portcgen-21-190
COMMENT : portcgen N=21, seed=190
TYPE : TSP
DIMENSION : 21
EDGE_WEIGHT_TYPE : EUC_2D
NODE_COORD_SECTION
1 121090 42419
2 78019 281446
3 -17873 -220670
4 288129 280494
5 385187 70716
6 -196407 54162
7 -194941 -197749
8 -412041 111434
9 10709 226431
10 61230 -132613
11 261508 70180
12 -205218 -63557
13 -451474 401914
14 -13138 -56196
15 -103482 -5905
16 -343273 77488
17 21340 137523
18 -473285 -81581
19 375089 231094
20 -80403 -15343
21 -97359 -74709
